15 
300 
10.5 14.4 0 0
11.2 14.1 0 -17
18 15.9 -10 -85
18.3 13.3 -10 -103
16.5 9.3 10 -28
15.4 11 10 -21
14.9 13.2 5 -26
16.3 13.3 -5 -100
16.4 17.8 5 -14
15 17.9 -5 -127
16.1 19.6 -10 -130
15.7 20.6 10 -11
13.2 20.1 -10 -114
14.3 15.3 -5 -137
14 5.1 10 -27
11.4 6.7 -15 -122
8.3 5 -15 -71
7.9 9.8 -10 -121
11.4 12 5 -10
11.2 17.6 5 -20
10.1 18.7 5 -28
11.7 20.3 10 -24
10.2 22.1 -10 -139
9.7 23.8 -10 -101
10.1 26.4 -15 -61
7.4 24 -15 -71
8.2 19.9 -15 -117
8.7 17.7 -10 -134
8.9 13.6 10 -14
5.6 11.1 10 -17
4.9 18.9 10 -10
7.3 18.8 -10 -120
